119
100
2
15
1
16
22
6
11
14
16
9
14
17
5
1
6
18
4
22
9
20
12
11
12
25
25
5
11
5
4
1
7
8
15
1
21
11
24
22
20
23
9
19
13
5
8
8
25
23
12
14
13
17
17
4
10
3
7
25
21
12
19
22
20
18
18
21
16
3
3
10
1
11
8
6
6
24
4
4
10
2
21
15
2
14
9
21
11
9
11
23
14
21
20
9
25
11
4
22
15
17
8
10
23
24
20
8
23
1
17
4
14
3
4
22
25
1
12
4
1
